100
128
45
18
31
42
24
62
34
37
47
45
62
30
5
16
14
6
46
58
18
64
13
51
25
44
46
12
27
45
38
14
25
44
59
59
52
17
29
12
23
64
36
38
39
13
33
53
30
55
11
1
34
23
32
55
41
12
37
64
27
22
38
40
45
1
53
62
1
3
61
26
4
54
47
2
25
33
32
61
47
21
2
58
24
38
36
31
23
45
20
34
29
4
39
38
54
22
51
49
64
64